18 16

2 4 9 5 14 14 12 11 3 3
6 2 9 10 8 12 11 8 12 14 2 12
6 11 14 10 13 13 15 11 2 11 7 2
5 2 2 12 16 13 10 6 9 7 12 3
9 14 10 12 3 12 7 12 12 12
3 5 2 7 7 9 1 11 15 12 5 4
8 4 1 11 13 3 14 13
2 15 3 6 9 5 5 5 16 12 10 13
9 6 7 11 4 13 8 5 3 9
2 7 11 2 5 14 4 12
6 14 4 3 2 6 16 12 8 11
9 14 4 13 7 3 5 13 15 14 12 8
13 15 15 15 11 12 7 14 10 7
15 13 1 12 12 6 2 15
1 2 14 6 8 9 10 6 15 14 2 7
2 11 4 14 1 2 3 4
7 11 2 3 8 5 11 8 5 3 15 8
15 12 10 3 3 13 9 15 14 12 13 5
